<instance format="XCSP3" type="COP">
  <variables>
    <array id="x" size="[30]"> 0 1 </array>
  </variables>
  <constraints>
    <sum>
      <list> x[] </list>
      <coeffs> 12 2 17 4 17 4 3 5 16 17 9 19 13 12 5 25 4 1 2 9 10 4 23 25 22 9 18 3 7 8 </coeffs>
      <condition> (le,100) </condition>
    </sum>
  </constraints>
  <objectives>
    <maximize type="sum">
      <list> x[] </list>
      <coeffs> 65 65 17 74 74 100 55 40 62 35 71 47 52 93 6 95 67 89 89 6 33 90 36 14 67 76 60 74 66 21 </coeffs>
    </maximize>
  </objectives>
</instance>
